1473 50
3 94
41 70
22 90
30 97
45 54
99 31
75 82
76 97
79 1
77 58
41 96
98 96
31 87
28 53
58 62
32 89
99 68
48 58
20 81
3 83
81 67
17 41
3 50
62 58
39 61
76 45
94 64
75 55
44 12
63 87
35 32
11 53
21 25
45 59
43 23
46 77
26 22
2 18
53 64
37 85
32 14
78 23
74 76
61 81
61 49
51 47
11 88
85 19
90 74
40 31
